\ENCODING=ISO-8859-1
\Problem name: IloCplex

Maximize
 obj: - v24 - 0.111464968152866 v19 + 6 f276 - 0.0923566878980892 v27 + f245
      - 0.0477707006369427 v5 + 7 f2710 + 1000 f2414 + f124
      - 0.035031847133758 v12 + f529 + f1211 + f1514 - 0.280254777070064 v15
      + f528 + f128 + f159 + f56 + 3 f31 - 0.111464968152866 v3 + 1002 f1510
      + f05 - 0.0254777070063694 v0 + f2423 - 0.00318471337579618 v23 + f06
      + 3 f2410 + f018 + f1721 - 0.0668789808917197 v17 + f32
      - 0.0700636942675159 v2 + f225 + 3 f38 + 3 f311 + f1717 + 2 f1928 + f2427
      + f1922 + 1000 f2417 + f196 + 1000 f2413 - 0.14968152866242 v13 + f1929
      + 1000 f2416 - 0.124203821656051 v16 + f247 + f2420 + f2419 + f243
      + 2 f246 + 1000 f2415 + 1000 f2412
Subject To
 c1:   v29 <= 0
 c2:   v25 <= 0
 c3:   v24 <= 0
 c4:   v22 <= 0
 c5:   v21 <= 0
 c6:   v20 <= 0
 c7:   v18 <= 0
 c8:   v4 <= 0
 c9:   v1 <= 0
 c10:  v26 <= 0
 c11:  v19 <= 1
 c12:  v19 >= 1
 c13:  v9 <= 0
 c14:  v6 <= 0
 c15:  v28 <= 0
 c16:  v7 <= 0
 c17:  v8 <= 0
 c18:  v11 <= 0
 c19:  v10 <= 0
 c20:  v14 <= 0
 c21:  v6 + f276 - v27 <= 1
 c22:  - v6 + f276 + v27 <= 1
 c23:  - v24 + f245 + v5 <= 1
 c24:  v24 + f245 - v5 <= 1
 c25:  v10 - v27 + f2710 <= 1
 c26:  - v10 + v27 + f2710 <= 1
 c27:  - v24 + v14 + f2414 <= 1
 c28:  v24 - v14 + f2414 <= 1
 c29:  v4 + f124 - v12 <= 1
 c30:  - v4 + f124 + v12 <= 1
 c31:  v29 - v5 + f529 <= 1
 c32:  - v29 + v5 + f529 <= 1
 c33:  v11 - v12 + f1211 <= 1
 c34:  - v11 + v12 + f1211 <= 1
 c35:  v14 + f1514 - v15 <= 1
 c36:  - v14 + f1514 + v15 <= 1
 c37:  v28 - v5 + f528 <= 1
 c38:  - v28 + v5 + f528 <= 1
 c39:  v8 - v12 + f128 <= 1
 c40:  - v8 + v12 + f128 <= 1
 c41:  v9 - v15 + f159 <= 1
 c42:  - v9 + v15 + f159 <= 1
 c43:  v6 - v5 + f56 <= 1
 c44:  - v6 + v5 + f56 <= 1
 c45:  v1 + f31 - v3 <= 1
 c46:  - v1 + f31 + v3 <= 1
 c47:  v10 - v15 + f1510 <= 1
 c48:  - v10 + v15 + f1510 <= 1
 c49:  v5 + f05 - v0 <= 1
 c50:  - v5 + f05 + v0 <= 1
 c51:  - v24 + f2423 + v23 <= 1
 c52:  v24 + f2423 - v23 <= 1
 c53:  v6 - v0 + f06 <= 1
 c54:  - v6 + v0 + f06 <= 1
 c55:  - v24 + v10 + f2410 <= 1
 c56:  v24 - v10 + f2410 <= 1
 c57:  v18 - v0 + f018 <= 1
 c58:  - v18 + v0 + f018 <= 1
 c59:  v21 + f1721 - v17 <= 1
 c60:  - v21 + f1721 + v17 <= 1
 c61:  - v3 + f32 + v2 <= 1
 c62:  v3 + f32 - v2 <= 1
 c63:  v25 - v2 + f225 <= 1
 c64:  - v25 + v2 + f225 <= 1
 c65:  v8 - v3 + f38 <= 1
 c66:  - v8 + v3 + f38 <= 1
 c67:  v11 - v3 + f311 <= 1
 c68:  - v11 + v3 + f311 <= 1
 c69:  f1717 <= 1
 c70:  f1717 <= 1
 c71:  - v19 + v28 + f1928 <= 1
 c72:  v19 - v28 + f1928 <= 1
 c73:  - v24 + v27 + f2427 <= 1
 c74:  v24 - v27 + f2427 <= 1
 c75:  v22 - v19 + f1922 <= 1
 c76:  - v22 + v19 + f1922 <= 1
 c77:  - v24 + v17 + f2417 <= 1
 c78:  v24 - v17 + f2417 <= 1
 c79:  - v19 + v6 + f196 <= 1
 c80:  v19 - v6 + f196 <= 1
 c81:  - v24 + f2413 + v13 <= 1
 c82:  v24 + f2413 - v13 <= 1
 c83:  v29 - v19 + f1929 <= 1
 c84:  - v29 + v19 + f1929 <= 1
 c85:  - v24 + f2416 + v16 <= 1
 c86:  v24 + f2416 - v16 <= 1
 c87:  - v24 + v7 + f247 <= 1
 c88:  v24 - v7 + f247 <= 1
 c89:  - v24 + v20 + f2420 <= 1
 c90:  v24 - v20 + f2420 <= 1
 c91:  - v24 + v19 + f2419 <= 1
 c92:  v24 - v19 + f2419 <= 1
 c93:  - v24 + v3 + f243 <= 1
 c94:  v24 - v3 + f243 <= 1
 c95:  - v24 + v6 + f246 <= 1
 c96:  v24 - v6 + f246 <= 1
 c97:  - v24 + v15 + f2415 <= 1
 c98:  v24 - v15 + f2415 <= 1
 c99:  - v24 + v12 + f2412 <= 1
 c100: v24 - v12 + f2412 <= 1
Bounds
 0 <= v29 <= 1
 0 <= v25 <= 1
 0 <= v24 <= 1
 0 <= v22 <= 1
 0 <= v21 <= 1
 0 <= v20 <= 1
 0 <= v18 <= 1
 0 <= v4 <= 1
 0 <= v1 <= 1
 0 <= v26 <= 1
 0 <= v19 <= 1
 0 <= v9 <= 1
 0 <= v6 <= 1
 0 <= v28 <= 1
 0 <= v7 <= 1
 0 <= v8 <= 1
 0 <= v11 <= 1
 0 <= v10 <= 1
 0 <= v14 <= 1
 0 <= f276 <= 1
 0 <= v27 <= 1
 0 <= f245 <= 1
 0 <= v5 <= 1
 0 <= f2710 <= 1
 0 <= f2414 <= 1
 0 <= f124 <= 1
 0 <= v12 <= 1
 0 <= f529 <= 1
 0 <= f1211 <= 1
 0 <= f1514 <= 1
 0 <= v15 <= 1
 0 <= f528 <= 1
 0 <= f128 <= 1
 0 <= f159 <= 1
 0 <= f56 <= 1
 0 <= f31 <= 1
 0 <= v3 <= 1
 0 <= f1510 <= 1
 0 <= f05 <= 1
 0 <= v0 <= 1
 0 <= f2423 <= 1
 0 <= v23 <= 1
 0 <= f06 <= 1
 0 <= f2410 <= 1
 0 <= f018 <= 1
 0 <= f1721 <= 1
 0 <= v17 <= 1
 0 <= f32 <= 1
 0 <= v2 <= 1
 0 <= f225 <= 1
 0 <= f38 <= 1
 0 <= f311 <= 1
 0 <= f1717 <= 1
 0 <= f1928 <= 1
 0 <= f2427 <= 1
 0 <= f1922 <= 1
 0 <= f2417 <= 1
 0 <= f196 <= 1
 0 <= f2413 <= 1
 0 <= v13 <= 1
 0 <= f1929 <= 1
 0 <= f2416 <= 1
 0 <= v16 <= 1
 0 <= f247 <= 1
 0 <= f2420 <= 1
 0 <= f2419 <= 1
 0 <= f243 <= 1
 0 <= f246 <= 1
 0 <= f2415 <= 1
 0 <= f2412 <= 1
End
